33D32945 STP File, STP Format Version 1.0

SECTION Comments
Name "edge_n12_d5_s19"
Problem "Euclidean Steiner Tree Problem"
Remark "Generated with STPGenerator. 5 dimensions."
END

SECTION Graph
Nodes 12
END

SECTION Coordinates
DDDDD 0 0.2902333854 0.2902333854 0.2902333854 0.2902333854 0.2902333854
DDDDD 1 0.3277869785 0.3277869785 0.3277869785 0.3277869785 0.3277869785
DDDDD 2 0.2285638117 0.2285638117 0.2285638117 0.2285638117 0.2285638117
DDDDD 3 0.0594177293 0.0594177293 0.0594177293 0.0594177293 0.0594177293
DDDDD 4 0.2219586108 0.2219586108 0.2219586108 0.2219586108 0.2219586108
DDDDD 5 0.6696780285 0.6696780285 0.6696780285 0.6696780285 0.6696780285
DDDDD 6 0.3323929949 0.3323929949 0.3323929949 0.3323929949 0.3323929949
DDDDD 7 0.5761897869 0.5761897869 0.5761897869 0.5761897869 0.5761897869
DDDDD 8 0.2733734680 0.2733734680 0.2733734680 0.2733734680 0.2733734680
DDDDD 9 0.0765914861 0.0765914861 0.0765914861 0.0765914861 0.0765914861
DDDDD 10 0.6450726547 0.6450726547 0.6450726547 0.6450726547 0.6450726547
DDDDD 11 0.0391567499 0.0391567499 0.0391567499 0.0391567499 0.0391567499
END
